WARNING: for repeatability, setting FPU to use double precision
============================[ Problem Statistics ]=============================
|                                                                             |
|  Number of variables:           100                                         |
|  Number of clauses:             449                                         |
|  Parse time:                   0.00 s                                       |
|  Eliminated clauses:           0.00 Mb                                      |
|  Simplification time:          0.00 s                                       |
|                                                                             |
============================[ Search Statistics ]==============================
| Conflicts |          ORIGINAL         |          LEARNT          | Progress |
|           |    Vars  Clauses Literals |    Limit  Clauses Lit/Cl |          |
===============================================================================
|       100 |      99      448     1346 |      164      100      7 |  0.010 % |
|       250 |      99      448     1346 |      180      167      6 |  0.020 % |
===============================================================================
restarts              : 3
conflicts             : 285            (inf /sec)
decisions             : 357            (0.00 % random) (inf /sec)
propagations          : 6789           (inf /sec)
conflict literals     : 1867           (19.49 % deleted)
Memory used           : 13.00 MB
CPU time              : 0 s

SATISFIABLE
